(set-logic QF_S)
(declare-fun var0 () String)
(declare-fun var1 () String)
(declare-fun var2 () String)
(declare-fun var3 () String)
(declare-fun var4 () String)
(declare-fun var5 () String)
(declare-fun var6 () String)
(declare-fun var7 () String)
(declare-fun var8 () String)
(declare-fun var9 () String)
(declare-fun var10 () String)
(declare-fun var11 () String)
(declare-fun var12 () String)
(declare-fun var13 () String)
(declare-fun var14 () String)
(declare-fun var15 () String)
(declare-fun var16 () String)
(declare-fun var17 () String)
(declare-fun var18 () String)
(declare-fun var19 () String)
(declare-fun var20 () String)
(declare-fun var21 () String)
(declare-fun var22 () String)
(declare-fun var23 () String)
(declare-fun var24 () String)
(declare-fun var25 () String)
(declare-fun var26 () String)
(declare-fun var27 () String)
(declare-fun var28 () String)
(declare-fun var29 () String)
(declare-fun var30 () String)
(declare-fun var31 () String)
(declare-fun var32 () String)
(declare-fun var33 () String)
(declare-fun var34 () String)
(declare-fun var35 () String)
(declare-fun var36 () String)
(declare-fun var37 () String)
(declare-fun var38 () String)
(declare-fun var39 () String)
(declare-fun var40 () String)
(declare-fun var41 () String)
(declare-fun var42 () String)
(declare-fun var43 () String)
(declare-fun var44 () String)
(declare-fun var45 () String)
(declare-fun var46 () String)
(declare-fun var47 () String)
(declare-fun var48 () String)
(declare-fun var49 () String)
(declare-fun var50 () String)
(declare-fun var51 () String)
(declare-fun var52 () String)
(declare-fun var53 () String)
(declare-fun var54 () String)
(declare-fun var55 () String)
(declare-fun var56 () String)
(declare-fun var57 () String)
(declare-fun var58 () String)
(declare-fun var59 () String)
(declare-fun var60 () String)
(assert (= var0 (Concat var1 var2)))
(assert (= var2 (Concat var3 var4)))
(assert (= var4 (Concat var5 var6)))
(assert (= var6 (Concat var7 var8)))
(assert (= var8 (Concat var9 var10)))
(assert (= var10 (Concat var11 var12)))
(assert (= var12 (Concat var13 var14)))
(assert (= var14 (Concat var15 var16)))
(assert (= var16 (Concat var17 var18)))
(assert (= var18 (Concat var19 var20)))
(assert (= var20 (Concat var21 var22)))
(assert (= var22 (Concat var23 var24)))
(assert (= var24 (Concat var25 var26)))
(assert (= var26 (Concat var27 var28)))
(assert (= var28 (Concat var29 var30)))
(assert (= var30 (Concat var31 var32)))
(assert (= var32 (Concat var33 var34)))
(assert (= var34 (Concat var35 var36)))
(assert (= var36 (Concat var37 var38)))
(assert (= var38 (Concat var39 var40)))
(assert (= var40 (Concat var41 var42)))
(assert (= var42 (Concat var43 var44)))
(assert (= var44 (Concat var45 var46)))
(assert (= var46 (Concat var47 var48)))
(assert (= var48 (Concat var49 var50)))
(assert (= var50 (Concat var51 var52)))
(assert (= var52 (Concat var53 var54)))
(assert (= var54 (Concat var55 var56)))
(assert (= var56 (Concat var57 var58)))
(assert (= var58 (Concat var59 var60)))
(assert (= var0 "solution"))
(assert (= "g" (CharAt var51 158)))
(assert (= "V" (CharAt var1 36)))
(assert (= "e" (CharAt var22 138)))
(assert (= "7" (CharAt var6 448)))
(assert (= "T" (CharAt var21 350)))
(assert (= "#" (CharAt var51 343)))
(assert (= "C" (CharAt var47 64)))
(assert (= "f" (CharAt var56 584)))
(assert (= "A" (CharAt var28 415)))
(assert (= "P" (CharAt var14 732)))
(assert (= "S" (CharAt var47 457)))
(assert (= "6" (CharAt var34 948)))
(assert (= "<" (CharAt var4 385)))
(assert (= ")" (CharAt var23 233)))
(assert (= "A" (CharAt var29 21)))
(assert (= "L" (CharAt var10 897)))
(assert (= "B" (CharAt var36 944)))
(assert (= "a" (CharAt var5 572)))
(assert (= ">" (CharAt var20 973)))
(assert (= "m" (CharAt var13 81)))
(assert (= "g" (CharAt var8 206)))
(assert (= "?" (CharAt var18 568)))
(assert (= "{" (CharAt var41 178)))
(assert (= "{" (CharAt var10 138)))
(assert (= "8" (CharAt var43 943)))
(assert (= "}" (CharAt var40 244)))
(assert (= "l" (CharAt var24 89)))
(assert (= "G" (CharAt var17 28)))
(assert (= "1" (CharAt var23 544)))
(assert (= "Z" (CharAt var3 213)))
(assert (= "H" (CharAt var23 889)))
(assert (= "U" (CharAt var49 915)))
(assert (= "T" (CharAt var23 662)))
(assert (= "#" (CharAt var2 311)))
(assert (= "Z" (CharAt var36 842)))
(assert (= "G" (CharAt var14 293)))
(assert (= "D" (CharAt var20 852)))
(assert (= "=" (CharAt var54 716)))
(assert (= "C" (CharAt var27 964)))
(assert (= "!" (CharAt var2 123)))
(assert (= "T" (CharAt var49 756)))
(assert (= "X" (CharAt var21 184)))
(assert (= "N" (CharAt var10 690)))
(assert (= "d" (CharAt var43 301)))
(assert (= "k" (CharAt var51 105)))
(assert (= "]" (CharAt var18 471)))
(assert (= "X" (CharAt var51 584)))
(assert (= "x" (CharAt var50 87)))
(assert (= "F" (CharAt var25 200)))
(assert (= "Z" (CharAt var23 142)))
(assert (= "*" (CharAt var2 699)))
(assert (= "l" (CharAt var2 365)))
(assert (= ":" (CharAt var31 798)))
(assert (= "Q" (CharAt var15 851)))
(assert (= "`" (CharAt var43 53)))
(assert (= "G" (CharAt var46 523)))
(assert (= "J" (CharAt var41 447)))
(assert (= "4" (CharAt var17 158)))
(assert (= "^" (CharAt var44 152)))
(assert (= "4" (CharAt var31 206)))
(assert (= "%" (CharAt var39 597)))
(assert (= "B" (CharAt var7 738)))
(assert (= "h" (CharAt var30 42)))
(assert (= "^" (CharAt var0 841)))
(assert (= "G" (CharAt var41 5)))
(assert (= "Z" (CharAt var12 196)))
(assert (= "-" (CharAt var23 389)))
(assert (= "S" (CharAt var36 398)))
(assert (= "&" (CharAt var55 507)))
(assert (= "-" (CharAt var44 723)))
(assert (= "-" (CharAt var8 581)))
(assert (= "r" (CharAt var28 646)))
(assert (= "\\" (CharAt var47 665)))
(assert (= "*" (CharAt var57 678)))
(assert (= "e" (CharAt var7 53)))
(assert (= "9" (CharAt var60 786)))
(assert (= "I" (CharAt var56 320)))
(assert (= "8" (CharAt var46 448)))
(assert (= "M" (CharAt var38 371)))
(assert (= ")" (CharAt var8 833)))
(assert (= "O" (CharAt var5 700)))
(assert (= "k" (CharAt var27 60)))
(assert (= "I" (CharAt var7 85)))
(assert (= "8" (CharAt var32 128)))
(assert (= "'" (CharAt var20 164)))
(assert (= "]" (CharAt var24 764)))
(assert (= "]" (CharAt var36 738)))
(assert (= "^" (CharAt var8 673)))
(assert (= "^" (CharAt var51 305)))
(assert (= "\\" (CharAt var28 401)))
(assert (= "<" (CharAt var54 437)))
(assert (= "." (CharAt var53 242)))
(assert (= "D" (CharAt var32 276)))
(assert (= "5" (CharAt var0 235)))
(assert (= "U" (CharAt var45 385)))
(assert (= "k" (CharAt var54 139)))
(assert (= "&" (CharAt var56 645)))
(assert (= "N" (CharAt var58 278)))
(assert (= "8" (CharAt var44 689)))
(assert (= ";" (CharAt var5 709)))
(assert (= "g" (CharAt var30 770)))
(assert (= "6" (CharAt var24 442)))
(assert (= "M" (CharAt var24 775)))
(assert (= "+" (CharAt var24 627)))
(assert (= "\"" (CharAt var33 379)))
(assert (= "Y" (CharAt var26 979)))
(assert (= "t" (CharAt var27 543)))
(assert (= "\"" (CharAt var27 766)))
(assert (= "x" (CharAt var6 535)))
(assert (= "*" (CharAt var25 182)))
(assert (= "-" (CharAt var11 725)))
(assert (= "\\" (CharAt var18 872)))
(assert (= "4" (CharAt var2 966)))
(assert (= "[" (CharAt var37 143)))
(assert (= "n" (CharAt var29 920)))
(assert (= "k" (CharAt var59 356)))
(assert (= ";" (CharAt var59 755)))
(assert (= "@" (CharAt var50 192)))
(assert (= "2" (CharAt var11 384)))
(assert (= "Q" (CharAt var24 259)))
(assert (= "c" (CharAt var3 548)))
(assert (= "<" (CharAt var14 467)))
(assert (= "U" (CharAt var41 331)))
(assert (= "A" (CharAt var38 358)))
(assert (= "," (CharAt var6 923)))
(assert (= "]" (CharAt var23 550)))
(assert (= "#" (CharAt var35 696)))
(assert (= "b" (CharAt var56 952)))
(assert (= "y" (CharAt var6 56)))
(assert (= "j" (CharAt var39 668)))
(assert (= "^" (CharAt var13 804)))
(assert (= "~" (CharAt var45 54)))
(assert (= "h" (CharAt var20 706)))
(assert (= ":" (CharAt var3 982)))
(assert (= "m" (CharAt var31 279)))
(assert (= "K" (CharAt var39 670)))
(assert (= "x" (CharAt var29 305)))
(assert (= ";" (CharAt var45 819)))
(assert (= "3" (CharAt var32 142)))
(assert (= "*" (CharAt var29 550)))
(assert (= "K" (CharAt var12 971)))
(assert (= "6" (CharAt var8 638)))
(assert (= "]" (CharAt var14 6)))
(assert (= "@" (CharAt var33 204)))
(assert (= "1" (CharAt var24 154)))
(assert (= "W" (CharAt var24 480)))
(assert (= "w" (CharAt var32 764)))
(assert (= "|" (CharAt var43 686)))
(assert (= "Z" (CharAt var37 655)))
(assert (= "@" (CharAt var50 358)))
(assert (= "N" (CharAt var36 455)))
(assert (= "`" (CharAt var13 206)))
(assert (= "W" (CharAt var47 554)))
(assert (= "3" (CharAt var58 906)))
(assert (= "," (CharAt var40 187)))
(assert (= "Q" (CharAt var50 910)))
(assert (= "." (CharAt var30 913)))
(assert (= "p" (CharAt var45 643)))
(assert (= "l" (CharAt var16 562)))
(assert (= "." (CharAt var7 275)))
(assert (= "|" (CharAt var13 158)))
(assert (= "," (CharAt var14 236)))
(assert (= "Q" (CharAt var59 888)))
(assert (= "u" (CharAt var52 241)))
(assert (= "J" (CharAt var24 299)))
(assert (= "G" (CharAt var53 343)))
(assert (= "3" (CharAt var9 494)))
(assert (= "P" (CharAt var17 2)))
(assert (= "(" (CharAt var23 989)))
(assert (= "q" (CharAt var39 882)))
(assert (= "!" (CharAt var37 99)))
(assert (= "\\" (CharAt var38 457)))
(assert (= "t" (CharAt var47 302)))
(assert (= "F" (CharAt var23 112)))
(assert (= "p" (CharAt var20 15)))
(assert (= "`" (CharAt var39 188)))
(assert (= "]" (CharAt var34 889)))
(assert (= "q" (CharAt var25 451)))
(assert (= "X" (CharAt var37 180)))
(assert (= "%" (CharAt var36 427)))
(assert (= "*" (CharAt var47 801)))
(assert (= "2" (CharAt var20 892)))
(assert (= "c" (CharAt var30 996)))
(assert (= "e" (CharAt var25 762)))
(assert (= "M" (CharAt var40 603)))
(assert (= "h" (CharAt var46 23)))
(assert (= "=" (CharAt var7 691)))
(assert (= "2" (CharAt var36 377)))
(assert (= "-" (CharAt var44 623)))
(assert (= "[" (CharAt var27 6)))
(assert (= "9" (CharAt var50 697)))
(assert (= "M" (CharAt var59 968)))
(assert (= "P" (CharAt var23 155)))
(assert (= "b" (CharAt var29 92)))
(assert (= "W" (CharAt var16 605)))
(assert (= "\\" (CharAt var1 801)))
(assert (= "%" (CharAt var52 821)))
(assert (= "|" (CharAt var9 930)))
(assert (= "o" (CharAt var56 333)))
(assert (= ":" (CharAt var25 934)))
(assert (= "]" (CharAt var57 170)))
(assert (= "$" (CharAt var20 249)))
(assert (= "5" (CharAt var37 717)))
(assert (= "u" (CharAt var21 218)))
(assert (= "w" (CharAt var22 396)))
(assert (= "D" (CharAt var4 707)))
(assert (= "2" (CharAt var45 272)))
(assert (= "\"" (CharAt var19 646)))
(assert (= "E" (CharAt var6 962)))
(assert (= "w" (CharAt var32 415)))
(assert (= "~" (CharAt var55 102)))
(assert (= "H" (CharAt var31 697)))
(assert (= "v" (CharAt var10 531)))
(assert (= "3" (CharAt var42 599)))
(assert (= "G" (CharAt var29 246)))
(assert (= "d" (CharAt var7 312)))
(assert (= "}" (CharAt var38 793)))
(assert (= "K" (CharAt var8 877)))
(assert (= "o" (CharAt var46 764)))
(assert (= "e" (CharAt var43 236)))
(assert (= "T" (CharAt var42 412)))
(assert (= "r" (CharAt var23 918)))
(assert (= ":" (CharAt var23 169)))
(assert (= "q" (CharAt var43 488)))
(assert (= "`" (CharAt var13 972)))
(assert (= "*" (CharAt var40 770)))
(assert (= "K" (CharAt var40 151)))
(assert (= "." (CharAt var37 580)))
(assert (= "Y" (CharAt var47 783)))
(assert (= "y" (CharAt var58 689)))
(assert (= "1" (CharAt var29 856)))
(assert (= "_" (CharAt var27 511)))
(assert (= "\"" (CharAt var22 908)))
(assert (= "~" (CharAt var53 683)))
(assert (= "v" (CharAt var45 431)))
(assert (= "{" (CharAt var4 147)))
(assert (= "<" (CharAt var8 703)))
(assert (= "r" (CharAt var13 508)))
(assert (= "m" (CharAt var46 271)))
(assert (= "1" (CharAt var6 743)))
(assert (= "c" (CharAt var44 340)))
(assert (= "6" (CharAt var46 51)))
(assert (= "Y" (CharAt var0 75)))
(assert (= "G" (CharAt var40 443)))
(assert (= "." (CharAt var60 732)))
(assert (= "/" (CharAt var50 277)))
(assert (= "$" (CharAt var52 109)))
(assert (= "&" (CharAt var54 318)))
(assert (= "/" (CharAt var25 826)))
(assert (= "-" (CharAt var8 106)))
(assert (= "-" (CharAt var60 980)))
(assert (= "v" (CharAt var28 181)))
(assert (= "j" (CharAt var48 96)))
(assert (= "e" (CharAt var11 803)))
(assert (= "L" (CharAt var29 589)))
(assert (= "W" (CharAt var9 17)))
(assert (= "*" (CharAt var48 436)))
(assert (= "t" (CharAt var51 652)))
(assert (= "U" (CharAt var41 263)))
(assert (= "]" (CharAt var29 613)))
(assert (= "H" (CharAt var31 139)))
(assert (= "v" (CharAt var24 924)))
(assert (= "2" (CharAt var7 179)))
(assert (= "K" (CharAt var28 526)))
(assert (= ")" (CharAt var28 263)))
(assert (= "S" (CharAt var29 992)))
(assert (= "1" (CharAt var2 885)))
(assert (= "#" (CharAt var54 259)))
(assert (= ";" (CharAt var17 708)))
(assert (= "q" (CharAt var29 630)))
(assert (= "s" (CharAt var11 577)))
(assert (= "d" (CharAt var59 421)))
(assert (= "R" (CharAt var31 830)))
(assert (= "g" (CharAt var38 359)))
(assert (= ";" (CharAt var50 121)))
(assert (= "%" (CharAt var39 85)))
(assert (= "," (CharAt var7 423)))
(assert (= "}" (CharAt var4 586)))
(assert (= "l" (CharAt var15 29)))
(assert (= "T" (CharAt var17 138)))
(assert (= "{" (CharAt var3 271)))
(assert (= "6" (CharAt var49 368)))
(assert (= "Z" (CharAt var26 683)))
(assert (= "u" (CharAt var16 166)))
(assert (= "w" (CharAt var53 739)))
(assert (= "B" (CharAt var1 500)))
(assert (= "(" (CharAt var32 342)))
(assert (= "@" (CharAt var51 805)))
(assert (= "!" (CharAt var50 874)))
(assert (= "v" (CharAt var1 605)))
(assert (= "X" (CharAt var46 341)))
(assert (= "T" (CharAt var13 824)))
(assert (= "$" (CharAt var4 668)))
(assert (= "T" (CharAt var20 205)))
(assert (= "j" (CharAt var15 451)))
(assert (= "X" (CharAt var56 205)))
(assert (= "j" (CharAt var17 305)))
(assert (= "=" (CharAt var42 0)))
(assert (= "c" (CharAt var28 74)))
(assert (= "6" (CharAt var35 428)))
(assert (= "u" (CharAt var7 711)))
(assert (= "/" (CharAt var56 533)))
(assert (= "u" (CharAt var51 749)))
(assert (= "0" (CharAt var54 774)))
(assert (= "!" (CharAt var60 127)))
(assert (= "L" (CharAt var11 877)))
(assert (= "m" (CharAt var27 827)))
(assert (= "s" (CharAt var7 491)))
(assert (= "v" (CharAt var8 695)))
(assert (= "0" (CharAt var31 48)))
(assert (= "h" (CharAt var52 16)))
(assert (= "`" (CharAt var24 582)))
(assert (= "e" (CharAt var51 323)))
(assert (= "H" (CharAt var17 529)))
(assert (= "8" (CharAt var37 276)))
(assert (= "_" (CharAt var12 781)))
(assert (= "^" (CharAt var49 883)))
(assert (= "i" (CharAt var31 660)))
(assert (= "H" (CharAt var27 54)))
(assert (= "Q" (CharAt var14 356)))
(assert (= "2" (CharAt var11 768)))
(assert (= "h" (CharAt var28 300)))
(assert (= "t" (CharAt var1 179)))
(assert (= "w" (CharAt var21 542)))
(assert (= "4" (CharAt var24 185)))
(assert (= "J" (CharAt var2 155)))
(assert (= "i" (CharAt var36 552)))
(assert (= "e" (CharAt var42 905)))
(assert (= "|" (CharAt var42 977)))
(assert (= "^" (CharAt var6 745)))
(assert (= "e" (CharAt var58 44)))
(assert (= "p" (CharAt var21 959)))
(assert (= ":" (CharAt var13 691)))
(assert (= "x" (CharAt var23 719)))
(assert (= "_" (CharAt var6 977)))
(assert (= "A" (CharAt var34 809)))
(assert (= "p" (CharAt var36 469)))
(assert (= "L" (CharAt var4 188)))
(assert (= "C" (CharAt var41 521)))
(assert (= "9" (CharAt var24 856)))
(assert (= "G" (CharAt var49 905)))
(assert (= "%" (CharAt var36 362)))
(assert (= "}" (CharAt var34 714)))
(assert (= "8" (CharAt var14 100)))
(assert (= "{" (CharAt var20 915)))
(assert (= "{" (CharAt var26 672)))
(assert (= "W" (CharAt var12 54)))
(assert (= "@" (CharAt var40 192)))
(assert (= "V" (CharAt var3 680)))
(assert (= "U" (CharAt var2 688)))
(assert (= "0" (CharAt var43 912)))
(assert (= "U" (CharAt var51 257)))
(assert (= "W" (CharAt var29 635)))
(assert (= "N" (CharAt var45 344)))
(assert (= "g" (CharAt var5 484)))
(assert (= "}" (CharAt var54 498)))
(assert (= "X" (CharAt var19 710)))
(assert (= "|" (CharAt var56 642)))
(assert (= "N" (CharAt var59 384)))
(assert (= "g" (CharAt var26 171)))
(assert (= "h" (CharAt var1 694)))
(assert (= "]" (CharAt var21 860)))
(assert (= "-" (CharAt var49 853)))
(assert (= "i" (CharAt var60 150)))
(assert (= "#" (CharAt var5 900)))
(assert (= "!" (CharAt var40 214)))
(assert (= "M" (CharAt var6 576)))
(assert (= "|" (CharAt var43 869)))
(assert (= "%" (CharAt var48 630)))
(assert (= "~" (CharAt var3 245)))
(assert (= "^" (CharAt var51 10)))
(assert (= "W" (CharAt var25 912)))
(assert (= "s" (CharAt var38 180)))
(assert (= "s" (CharAt var29 152)))
(assert (= "'" (CharAt var10 814)))
(assert (= "T" (CharAt var0 433)))
(assert (= "~" (CharAt var23 872)))
(assert (= "~" (CharAt var15 281)))
(assert (= "o" (CharAt var27 984)))
(assert (= "0" (CharAt var16 905)))
(assert (= "9" (CharAt var29 793)))
(assert (= "|" (CharAt var16 409)))
(assert (= "S" (CharAt var24 960)))
(assert (= "*" (CharAt var2 530)))
(assert (= "r" (CharAt var30 515)))
(assert (= "j" (CharAt var23 199)))
(assert (= "," (CharAt var7 91)))
(assert (= "(" (CharAt var21 473)))
(assert (= "d" (CharAt var31 301)))
(assert (= "4" (CharAt var44 802)))
(assert (= "C" (CharAt var41 918)))
(assert (= "[" (CharAt var12 981)))
(assert (= "q" (CharAt var13 588)))
(assert (= "<" (CharAt var1 337)))
(assert (= "f" (CharAt var16 948)))
(assert (= "v" (CharAt var1 583)))
(assert (= "u" (CharAt var37 434)))
(assert (= "~" (CharAt var48 735)))
(assert (= "}" (CharAt var20 758)))
(assert (= "8" (CharAt var48 845)))
(assert (= "8" (CharAt var45 430)))
(assert (= "`" (CharAt var20 840)))
(assert (= "(" (CharAt var12 533)))
(assert (= "n" (CharAt var13 931)))
(assert (= "H" (CharAt var38 200)))
(assert (= "'" (CharAt var0 451)))
(assert (= "G" (CharAt var4 923)))
(assert (= "H" (CharAt var51 103)))
(assert (= "&" (CharAt var33 649)))
(assert (= "h" (CharAt var4 247)))
(assert (= "I" (CharAt var38 894)))
(assert (= "{" (CharAt var5 979)))
(assert (= "H" (CharAt var28 953)))
(assert (= "L" (CharAt var0 160)))
(assert (= "3" (CharAt var10 642)))
(assert (= "C" (CharAt var16 423)))
(assert (= "6" (CharAt var39 620)))
(assert (= "K" (CharAt var33 483)))
(assert (= "w" (CharAt var12 332)))
(assert (= "]" (CharAt var37 864)))
(assert (= "8" (CharAt var38 474)))
(assert (= "R" (CharAt var47 43)))
(assert (= "H" (CharAt var60 479)))
(assert (= "}" (CharAt var12 843)))
(assert (= "," (CharAt var52 307)))
(assert (= "A" (CharAt var55 484)))
(assert (= "\"" (CharAt var2 935)))
(assert (= "1" (CharAt var28 47)))
(assert (= "+" (CharAt var37 104)))
(assert (= "`" (CharAt var3 802)))
(assert (= "=" (CharAt var52 101)))
(assert (= ":" (CharAt var5 660)))
(assert (= "f" (CharAt var43 257)))
(assert (= "e" (CharAt var21 427)))
(assert (= "^" (CharAt var28 801)))
(assert (= "K" (CharAt var0 135)))
(assert (= "s" (CharAt var25 995)))
(assert (= "r" (CharAt var12 706)))
(assert (= "P" (CharAt var26 411)))
(assert (= "o" (CharAt var2 868)))
(assert (= "C" (CharAt var3 945)))
(assert (= "9" (CharAt var59 302)))
(assert (= "\"" (CharAt var21 235)))
(assert (= "L" (CharAt var32 945)))
(assert (= "m" (CharAt var25 131)))
(assert (= "3" (CharAt var60 329)))
(assert (= "c" (CharAt var26 842)))
(assert (= "W" (CharAt var2 655)))
(assert (= "k" (CharAt var13 244)))
(assert (= ")" (CharAt var51 293)))
(assert (= "%" (CharAt var53 803)))
(assert (= "v" (CharAt var20 851)))
(assert (= "w" (CharAt var37 494)))
(assert (= "x" (CharAt var7 62)))
(assert (= "S" (CharAt var22 991)))
(assert (= "k" (CharAt var39 966)))
(assert (= "#" (CharAt var14 421)))
(assert (= "." (CharAt var39 460)))
(assert (= "H" (CharAt var14 568)))
(assert (= "}" (CharAt var58 750)))
(assert (= "S" (CharAt var35 685)))
(assert (= "5" (CharAt var1 297)))
(assert (= "4" (CharAt var40 787)))
(assert (= "m" (CharAt var57 792)))
(assert (= "z" (CharAt var56 193)))
(assert (= "I" (CharAt var5 280)))
(assert (= "]" (CharAt var27 797)))
(assert (= "C" (CharAt var56 844)))
(assert (= "r" (CharAt var16 721)))
(assert (= "5" (CharAt var21 194)))
(assert (= "\"" (CharAt var1 94)))
(assert (= "r" (CharAt var30 834)))
(assert (= "j" (CharAt var28 978)))
(assert (= "p" (CharAt var23 414)))
(assert (= "X" (CharAt var27 870)))
(assert (= "3" (CharAt var18 74)))
(assert (= "}" (CharAt var4 514)))
(assert (= "?" (CharAt var41 296)))
(assert (= "_" (CharAt var36 780)))
(assert (= "0" (CharAt var5 830)))
(assert (= "^" (CharAt var40 710)))
(assert (= "e" (CharAt var52 695)))
(assert (= ";" (CharAt var58 855)))
(assert (= "_" (CharAt var52 299)))
(assert (= "7" (CharAt var26 300)))
(assert (= "&" (CharAt var3 85)))
(assert (= "4" (CharAt var24 163)))
(assert (= "^" (CharAt var47 340)))
(assert (= "E" (CharAt var36 473)))
(assert (= "1" (CharAt var1 342)))
(assert (= "(" (CharAt var25 556)))
(assert (= "@" (CharAt var6 226)))
(assert (= "A" (CharAt var48 823)))
(assert (= "*" (CharAt var10 924)))
(assert (= "-" (CharAt var31 386)))
(assert (= "3" (CharAt var17 127)))
(assert (= "g" (CharAt var19 113)))
(assert (= "S" (CharAt var22 782)))
(assert (= "V" (CharAt var58 853)))
(assert (= "?" (CharAt var46 361)))
(assert (= "Q" (CharAt var15 910)))
(assert (= "I" (CharAt var50 470)))
(assert (= "<" (CharAt var14 187)))
(assert (= "@" (CharAt var9 882)))
(assert (= "h" (CharAt var19 988)))
(assert (= "a" (CharAt var47 662)))
(assert (= "n" (CharAt var58 695)))
(assert (= "1" (CharAt var29 24)))
(assert (= "E" (CharAt var56 168)))
(assert (= "E" (CharAt var18 46)))
(assert (= "@" (CharAt var54 238)))
(assert (= "V" (CharAt var30 769)))
(assert (= "q" (CharAt var50 719)))
(assert (= ";" (CharAt var56 65)))
(assert (= "f" (CharAt var59 410)))
(assert (= "v" (CharAt var8 626)))
(assert (= "." (CharAt var48 321)))
(assert (= "v" (CharAt var11 465)))
(assert (= "y" (CharAt var20 947)))
(assert (= "}" (CharAt var14 362)))
(assert (= "d" (CharAt var54 678)))
(assert (= "l" (CharAt var44 981)))
(assert (= "*" (CharAt var46 253)))
(assert (= "d" (CharAt var12 553)))
(assert (= "F" (CharAt var9 468)))
(assert (= "p" (CharAt var25 103)))
(assert (= "P" (CharAt var53 177)))
(assert (= "U" (CharAt var18 761)))
(assert (= "_" (CharAt var40 768)))
(assert (= "N" (CharAt var12 862)))
(assert (= "J" (CharAt var0 702)))
(assert (= "j" (CharAt var37 185)))
(assert (= "[" (CharAt var42 764)))
(assert (= "S" (CharAt var29 600)))
(assert (= ":" (CharAt var51 637)))
(assert (= "P" (CharAt var47 395)))
(assert (= "J" (CharAt var23 17)))
(assert (= "^" (CharAt var12 505)))
(assert (= "@" (CharAt var42 267)))
(assert (= "o" (CharAt var58 793)))
(assert (= "O" (CharAt var58 880)))
(assert (= "E" (CharAt var14 466)))
(assert (= "&" (CharAt var47 361)))
(assert (= "5" (CharAt var24 114)))
(assert (= "a" (CharAt var20 719)))
(assert (= "Z" (CharAt var2 189)))
(assert (= "i" (CharAt var4 738)))
(assert (= "u" (CharAt var27 131)))
(assert (= "." (CharAt var8 99)))
(assert (= "L" (CharAt var36 313)))
(assert (= "h" (CharAt var11 278)))
(assert (= "." (CharAt var27 273)))
(assert (= "#" (CharAt var30 256)))
(assert (= "L" (CharAt var53 929)))
(assert (= "0" (CharAt var11 579)))
(assert (= "k" (CharAt var36 939)))
(assert (= "`" (CharAt var8 192)))
(assert (= ">" (CharAt var57 518)))
(assert (= "{" (CharAt var6 131)))
(assert (= "N" (CharAt var44 956)))
(assert (= "s" (CharAt var17 125)))
(assert (= "f" (CharAt var30 579)))
(assert (= "+" (CharAt var11 378)))
(assert (= ">" (CharAt var52 264)))
(assert (= "H" (CharAt var13 984)))
(assert (= "b" (CharAt var19 593)))
(assert (= "T" (CharAt var38 821)))
(assert (= "]" (CharAt var35 694)))
(assert (= "%" (CharAt var59 885)))
(assert (= "l" (CharAt var37 163)))
(assert (= "&" (CharAt var51 445)))
(assert (= "F" (CharAt var15 345)))
(assert (= "Y" (CharAt var49 969)))
(assert (= "}" (CharAt var39 480)))
(assert (= "|" (CharAt var14 142)))
(assert (= "`" (CharAt var3 7)))
(assert (= "A" (CharAt var31 424)))
(assert (= "9" (CharAt var58 273)))
(assert (= "h" (CharAt var54 228)))
(assert (= "Z" (CharAt var36 755)))
(assert (= "l" (CharAt var26 113)))
(assert (= "]" (CharAt var13 440)))
(assert (= ">" (CharAt var32 215)))
(assert (= "@" (CharAt var26 603)))
(assert (= "8" (CharAt var23 781)))
(assert (= "x" (CharAt var24 385)))
(assert (= "f" (CharAt var58 775)))
(assert (= "M" (CharAt var10 17)))
(assert (= "O" (CharAt var42 386)))
(assert (= "~" (CharAt var4 695)))
(assert (= "A" (CharAt var27 91)))
(assert (= "#" (CharAt var7 353)))
(assert (= "&" (CharAt var39 353)))
(assert (= "e" (CharAt var14 803)))
(assert (= ">" (CharAt var39 176)))
(assert (= "U" (CharAt var16 887)))
(assert (= ")" (CharAt var58 675)))
(assert (= "|" (CharAt var44 934)))
(assert (= "o" (CharAt var50 89)))
(assert (= "'" (CharAt var7 218)))
(assert (= "C" (CharAt var27 363)))
(assert (= "?" (CharAt var32 644)))
(assert (= "]" (CharAt var57 103)))
(assert (= "-" (CharAt var26 841)))
(assert (= "!" (CharAt var3 701)))
(assert (= "[" (CharAt var12 209)))
(assert (= "[" (CharAt var44 380)))
(assert (= "f" (CharAt var11 254)))
(assert (= "c" (CharAt var57 123)))
(assert (= "5" (CharAt var53 961)))
(assert (= "u" (CharAt var44 475)))
(assert (= "b" (CharAt var47 726)))
(assert (= "F" (CharAt var23 692)))
(assert (= "F" (CharAt var45 252)))
(assert (= "B" (CharAt var15 12)))
(assert (= "g" (CharAt var25 477)))
(assert (= "l" (CharAt var20 62)))
(assert (= "%" (CharAt var44 186)))
(assert (= "I" (CharAt var10 645)))
(assert (= "P" (CharAt var32 552)))
(assert (= "_" (CharAt var0 212)))
(assert (= "{" (CharAt var20 65)))
(assert (= "s" (CharAt var33 522)))
(assert (= "%" (CharAt var24 822)))
(assert (= "u" (CharAt var6 577)))
(assert (= "y" (CharAt var25 868)))
(assert (= "l" (CharAt var6 672)))
(assert (= "|" (CharAt var43 193)))
(assert (= "-" (CharAt var49 135)))
(assert (= "{" (CharAt var30 940)))
(assert (= "S" (CharAt var17 252)))
(assert (= ">" (CharAt var40 489)))
(assert (= "b" (CharAt var17 257)))
(assert (= "F" (CharAt var53 186)))
(assert (= "+" (CharAt var53 535)))
(assert (= "J" (CharAt var37 483)))
(assert (= "E" (CharAt var3 781)))
(assert (= "N" (CharAt var40 722)))
(assert (= "`" (CharAt var29 424)))
(assert (= "2" (CharAt var34 950)))
(assert (= ")" (CharAt var60 671)))
(assert (= "U" (CharAt var18 335)))
(assert (= "j" (CharAt var19 726)))
(assert (= "|" (CharAt var1 23)))
(assert (= "t" (CharAt var15 478)))
(assert (= "-" (CharAt var0 394)))
(assert (= "e" (CharAt var28 783)))
(assert (= "i" (CharAt var22 648)))
(assert (= "P" (CharAt var42 264)))
(assert (= "D" (CharAt var30 245)))
(assert (= "}" (CharAt var32 275)))
(assert (= "\"" (CharAt var8 945)))
(assert (= "{" (CharAt var0 659)))
(assert (= "m" (CharAt var32 587)))
(assert (= "c" (CharAt var16 510)))
(assert (= "Z" (CharAt var41 360)))
(assert (= "s" (CharAt var53 150)))
(assert (= "*" (CharAt var16 303)))
(assert (= "D" (CharAt var45 546)))
(assert (= "." (CharAt var33 486)))
(assert (= "1" (CharAt var42 123)))
(assert (= "k" (CharAt var26 761)))
(assert (= "6" (CharAt var3 457)))
(assert (= "+" (CharAt var8 743)))
(assert (= "h" (CharAt var5 108)))
(assert (= "H" (CharAt var34 908)))
(assert (= "0" (CharAt var2 136)))
(assert (= "L" (CharAt var0 273)))
(assert (= "Z" (CharAt var9 296)))
(assert (= "|" (CharAt var43 545)))
(assert (= ")" (CharAt var39 847)))
(assert (= "8" (CharAt var31 117)))
(assert (= "'" (CharAt var53 258)))
(assert (= "l" (CharAt var19 406)))
(assert (= "$" (CharAt var14 597)))
(assert (= "2" (CharAt var53 81)))
(assert (= "W" (CharAt var42 911)))
(assert (= "+" (CharAt var2 607)))
(assert (= "~" (CharAt var15 508)))
(assert (= "a" (CharAt var45 229)))
(assert (= "u" (CharAt var37 795)))
(assert (= "8" (CharAt var21 108)))
(assert (= "}" (CharAt var11 616)))
(assert (= "r" (CharAt var39 505)))
(assert (= "a" (CharAt var46 340)))
(assert (= "|" (CharAt var1 333)))
(assert (= "n" (CharAt var28 212)))
(assert (= "-" (CharAt var45 314)))
(assert (= "9" (CharAt var13 503)))
(assert (= "0" (CharAt var4 497)))
(assert (= "K" (CharAt var13 253)))
(assert (= "J" (CharAt var8 188)))
(assert (= "m" (CharAt var0 564)))
(assert (= "y" (CharAt var48 957)))
(assert (= "z" (CharAt var51 281)))
(assert (= "0" (CharAt var37 745)))
(assert (= ":" (CharAt var27 505)))
(assert (= "w" (CharAt var45 186)))
(assert (= ">" (CharAt var15 146)))
(assert (= "O" (CharAt var33 26)))
(assert (= "l" (CharAt var36 987)))
(assert (= "\\" (CharAt var17 42)))
(assert (= "p" (CharAt var29 586)))
(assert (= ">" (CharAt var51 705)))
(assert (= "~" (CharAt var59 592)))
(assert (= "i" (CharAt var49 794)))
(assert (= "T" (CharAt var33 162)))
(assert (= "*" (CharAt var45 768)))
(assert (= "U" (CharAt var50 820)))
(assert (= "W" (CharAt var51 665)))
(assert (= "l" (CharAt var40 753)))
(assert (= "H" (CharAt var29 552)))
(assert (= "W" (CharAt var51 529)))
(assert (= "U" (CharAt var12 664)))
(assert (= "\"" (CharAt var28 26)))
(assert (= "c" (CharAt var23 121)))
(assert (= "[" (CharAt var12 29)))
(assert (= "V" (CharAt var37 754)))
(assert (= "[" (CharAt var34 676)))
(assert (= "'" (CharAt var27 931)))
(assert (= "d" (CharAt var25 676)))
(assert (= "C" (CharAt var33 515)))
(assert (= "R" (CharAt var12 756)))
(assert (= "5" (CharAt var10 979)))
(assert (= "Y" (CharAt var54 55)))
(assert (= "#" (CharAt var5 152)))
(assert (= ")" (CharAt var4 961)))
(assert (= "R" (CharAt var25 454)))
(assert (= "M" (CharAt var1 261)))
(assert (= "-" (CharAt var12 631)))
(assert (= "K" (CharAt var31 342)))
(assert (= "]" (CharAt var28 561)))
(assert (= ">" (CharAt var45 987)))
(assert (= "3" (CharAt var2 528)))
(assert (= "U" (CharAt var17 888)))
(assert (= "m" (CharAt var14 719)))
(assert (= "1" (CharAt var48 98)))
(assert (= "a" (CharAt var50 488)))
(assert (= "j" (CharAt var0 262)))
(assert (= "~" (CharAt var4 766)))
(assert (= "&" (CharAt var3 581)))
(assert (= "$" (CharAt var30 198)))
(assert (= "D" (CharAt var37 961)))
(assert (= "I" (CharAt var0 412)))
(assert (= "k" (CharAt var11 277)))
(assert (= "0" (CharAt var8 796)))
(assert (= "`" (CharAt var47 42)))
(assert (= "R" (CharAt var51 143)))
(assert (= "~" (CharAt var39 129)))
(assert (= "^" (CharAt var4 629)))
(assert (= "[" (CharAt var56 255)))
(assert (= "e" (CharAt var25 734)))
(assert (= "t" (CharAt var21 669)))
(assert (= "m" (CharAt var29 774)))
(assert (= "m" (CharAt var29 726)))
(assert (= "w" (CharAt var14 124)))
(assert (= ")" (CharAt var60 124)))
(assert (= "j" (CharAt var29 597)))
(assert (= "f" (CharAt var24 311)))
(assert (= "Y" (CharAt var60 889)))
(assert (= "0" (CharAt var38 583)))
(assert (= "z" (CharAt var9 22)))
(assert (= "x" (CharAt var17 219)))
(assert (= "(" (CharAt var23 60)))
(assert (= "c" (CharAt var31 91)))
(assert (= "V" (CharAt var0 932)))
(assert (= "^" (CharAt var10 287)))
(assert (= "x" (CharAt var59 239)))
(assert (= "\\" (CharAt var39 263)))
(assert (= "_" (CharAt var14 456)))
(assert (= "D" (CharAt var33 151)))
(assert (= "o" (CharAt var33 796)))
(assert (= "I" (CharAt var24 429)))
(assert (= "W" (CharAt var8 404)))
(assert (= "e" (CharAt var38 818)))
(assert (= "w" (CharAt var58 185)))
(assert (= "Q" (CharAt var44 341)))
(assert (= "}" (CharAt var4 57)))
(assert (= "{" (CharAt var23 687)))
(assert (= "?" (CharAt var27 768)))
(assert (= "g" (CharAt var50 134)))
(assert (= "I" (CharAt var5 485)))
(assert (= "z" (CharAt var4 17)))
(assert (= "L" (CharAt var35 234)))
(assert (= "I" (CharAt var10 975)))
(assert (= "M" (CharAt var56 959)))
(assert (= "U" (CharAt var7 415)))
(assert (= "c" (CharAt var27 292)))
(assert (= "o" (CharAt var12 808)))
(assert (= "z" (CharAt var4 559)))
(assert (= "#" (CharAt var14 267)))
(assert (= "!" (CharAt var15 269)))
(assert (= "f" (CharAt var23 593)))
(assert (= "5" (CharAt var34 340)))
(assert (= "I" (CharAt var10 519)))
(assert (= "R" (CharAt var15 652)))
(assert (= "M" (CharAt var26 56)))
(assert (= "D" (CharAt var25 187)))
(assert (= ";" (CharAt var54 706)))
(assert (= "n" (CharAt var6 464)))
(assert (= "F" (CharAt var54 856)))
(assert (= "{" (CharAt var2 805)))
(assert (= "e" (CharAt var17 746)))
(assert (= "o" (CharAt var44 730)))
(assert (= "@" (CharAt var0 365)))
(assert (= "P" (CharAt var56 873)))
(assert (= "u" (CharAt var58 174)))
(assert (= "-" (CharAt var38 592)))
(assert (= "f" (CharAt var15 477)))
(assert (= "J" (CharAt var58 766)))
(assert (= "," (CharAt var7 38)))
(assert (= "z" (CharAt var41 552)))
(assert (= "m" (CharAt var0 582)))
(assert (= ">" (CharAt var44 25)))
(assert (= "[" (CharAt var27 40)))
(assert (= "*" (CharAt var19 176)))
(assert (= "F" (CharAt var17 469)))
(assert (= "b" (CharAt var47 510)))
(assert (= "l" (CharAt var60 925)))
(assert (= "^" (CharAt var12 392)))
(assert (= "B" (CharAt var20 791)))
(assert (= "\"" (CharAt var19 295)))
(assert (= "y" (CharAt var38 994)))
(assert (= "U" (CharAt var25 386)))
(assert (= "n" (CharAt var53 480)))
(assert (= "C" (CharAt var32 606)))
(assert (= "z" (CharAt var49 73)))
(assert (= "g" (CharAt var24 383)))
(assert (= "+" (CharAt var46 972)))
(assert (= "&" (CharAt var28 348)))
(assert (= "K" (CharAt var6 116)))
(assert (= "w" (CharAt var29 579)))
(assert (= "<" (CharAt var33 406)))
(assert (= "9" (CharAt var43 487)))
(assert (= "'" (CharAt var3 346)))
(assert (= "@" (CharAt var51 841)))
(assert (= "[" (CharAt var32 577)))
(assert (= "E" (CharAt var57 767)))
(assert (= "D" (CharAt var1 136)))
(assert (= "J" (CharAt var58 296)))
(assert (= "h" (CharAt var55 592)))
(assert (= "Q" (CharAt var56 646)))
(assert (= "G" (CharAt var41 79)))
(assert (= "e" (CharAt var58 352)))
(assert (= "o" (CharAt var57 8)))
(assert (= "/" (CharAt var15 362)))
(assert (= "j" (CharAt var37 58)))
(assert (= "`" (CharAt var37 478)))
(assert (= "A" (CharAt var41 769)))
(assert (= "z" (CharAt var31 895)))
(assert (= "`" (CharAt var49 145)))
(assert (= "I" (CharAt var24 642)))
(assert (= "*" (CharAt var38 678)))
(assert (= "~" (CharAt var49 885)))
(assert (= "[" (CharAt var12 519)))
(assert (= "T" (CharAt var21 402)))
(assert (= "z" (CharAt var34 403)))
(assert (= "B" (CharAt var24 575)))
(assert (= "o" (CharAt var54 78)))
(assert (= "0" (CharAt var16 382)))
(assert (= "b" (CharAt var42 1000)))
(assert (= "k" (CharAt var15 776)))
(assert (= "k" (CharAt var59 186)))
(assert (= "P" (CharAt var11 236)))
(assert (= "K" (CharAt var26 821)))
(assert (= "l" (CharAt var29 926)))
(assert (= ")" (CharAt var1 521)))
(assert (= "Q" (CharAt var58 533)))
(assert (= "H" (CharAt var19 968)))
(assert (= "2" (CharAt var3 269)))
(assert (= "b" (CharAt var38 617)))
(assert (= "@" (CharAt var13 177)))
(assert (= "t" (CharAt var36 596)))
(assert (= "d" (CharAt var29 67)))
(assert (= "F" (CharAt var31 49)))
(assert (= "q" (CharAt var23 472)))
(assert (= "`" (CharAt var50 572)))
(assert (= "&" (CharAt var21 848)))
(assert (= "0" (CharAt var2 835)))
(assert (= "[" (CharAt var43 925)))
(assert (= "M" (CharAt var52 816)))
(check-sat)